50

100 28 300
100 35 300
98 30 294
97 3 291
97 41 300
94 41 296
92 7 300
92 5 285
91 33 281
85 29 294
84 41 291
84 36 255
83 37 256
82 25 288
82 2 275
80 14 247
78 14 270
78 37 270
78 20 279
78 39 279
75 35 279
74 33 243
73 9 246
72 4 292
71 35 297
70 16 278
70 10 292
68 1 237
66 24 289
65 2 274
65 9 260
54 8 289
50 4 283
50 2 288
50 14 248
49 22 255
49 5 221
49 11 167
47 17 289
44 17 298
44 2 226
42 4 172
42 3 190
41 20 223
41 4 273
41 2 163
40 7 123
36 11 201
36 12 255
30 11 260
